(set-info :source |
 Generated by Alive 0.1
 More info in N. P. Lopes, D. Menendez, S. Nagarakatte, J. Regehr.
 Provably Correct Peephole Optimizations with Alive. In PLDI'15.
|)

(set-info :status unknown)
(declare-fun %X () (_ BitVec 40))
(declare-fun %Y () (_ BitVec 40))
(assert
 (let (($x393079 (= (bvmul (bvudiv %X %Y) %Y) %X)))
 (let (($x426794 (and (distinct %Y (_ bv0 40)) true)))
 (and $x426794 $x393079 false))))
(check-sat)
